\ENCODING=ISO-8859-1
\Problem name: 

Minimize
 obj1: y0
Subject To
 c0:      y0 - 52 q_00 - 25 q_01 - 41 q_02 - 63 q_03 - 17 q_04 - 76 q_05
          - 93 q_06 - 75 q_07 - 50 q_08 - 78 q_09 - 14 q_10 - 86 q_11 - 62 q_12
          - 18 q_13 - 7 q_14 - 38 q_15 - 33 q_16 - 30 q_17 - 89 q_18 - 13 q_19
          - 35 q_20 - 71 q_21 - 7 q_22 - 83 q_23 - 95 q_24 - 28 q_25 - 44 q_26
          - 34 q_27 - 7 q_28 - 29 q_29 - 56 q_30 - q_31 - 80 q_32 - 65 q_33
          - 23 q_34 - 25 q_35 - 94 q_36 - 93 q_37 - 89 q_38 - 23 q_39 - 53 q_40
          - 32 q_41 - 81 q_42 - 8 q_43 - 67 q_44 - 52 q_45 - 65 q_46 - 62 q_47
          - 76 q_48 - 33 q_49 - 23 q_50 - 4 q_51 - 100 q_52 - 61 q_53 - 56 q_54
          - 90 q_55 - 80 q_56 - 54 q_57 - 7 q_58 - 45 q_59 - 72 q_60 - 50 q_61
          - 69 q_62 - 54 q_63 - 6 q_64 - 71 q_65 - 4 q_66 - 4 q_67 - 59 q_68
          - 49 q_69 - 4 q_70 - 49 q_71 - 15 q_72 - 95 q_73 - 22 q_74 - 4 q_75
          - 38 q_76 - 45 q_77 - 79 q_78 - 59 q_79 - 67 q_80 - 34 q_81 - 24 q_82
          - 87 q_83 - 10 q_84 - 5 q_85 - 67 q_86 - 59 q_87 - 47 q_88 - 23 q_89
          - 44 q_90 - 10 q_91 - 2 q_92 - 78 q_93 - 53 q_94 - 71 q_95 - 6 q_96
          - 89 q_97 - 69 q_98 - 60 q_99 - 10 q_100 - 41 q_101 - 69 q_102
          - 83 q_103 - 47 q_104 - 69 q_105 - 21 q_106 - q_107 - 56 q_108
          - 45 q_109 - 75 q_110 - 14 q_111 - 68 q_112 - 52 q_113 - 4 q_114
          - 69 q_115 - 7 q_116 - 72 q_117 - 91 q_118 - 59 q_119  = 0
 c51:     - 61 q_00 - 33 q_01 - 45 q_02 - 97 q_03 - 3 q_04 - 3 q_05 - 74 q_06
          - 5 q_07 - 3 q_08 - 44 q_09 - 45 q_10 - 70 q_11 - 6 q_12 - 63 q_13
          - 82 q_14 - 21 q_15 - 18 q_16 - 12 q_17 - 89 q_18 - 41 q_19 - 79 q_20
          - q_21 - 3 q_22 - 76 q_23 - 53 q_24 - 26 q_25 - 15 q_26 - 65 q_27
          - 41 q_28 - 63 q_29 - 51 q_30 - 27 q_31 - 99 q_32 - 84 q_33 - 55 q_34
          - 61 q_35 - 7 q_36 - 93 q_37 - 23 q_38 - 37 q_39 - 32 q_40 - 50 q_41
          - 98 q_42 - 41 q_43 - 43 q_44 - 34 q_45 - 71 q_46 - 67 q_47 - 26 q_48
          - 13 q_49 - 33 q_50 - 36 q_51 - 19 q_52 - 62 q_53 - 24 q_54 - 14 q_55
          - 60 q_56 - 77 q_57 - 51 q_58 - 38 q_59 - 28 q_60 - 92 q_61 - 20 q_62
          - 40 q_63 - 21 q_64 - 82 q_65 - 7 q_66 - 43 q_67 - 93 q_68 - 18 q_69
          - 71 q_70 - 81 q_71 - 63 q_72 - 13 q_73 - 63 q_74 - 45 q_75 - 33 q_76
          - 23 q_77 - 70 q_78 - 2 q_79 - 65 q_80 - 41 q_81 - 7 q_82 - 17 q_83
          - 23 q_84 - 87 q_85 - 43 q_86 - 77 q_87 - 62 q_88 - 2 q_89 - 94 q_90
          - 39 q_91 - 87 q_92 - 47 q_93 - 43 q_94 - 83 q_95 - 83 q_96 - 88 q_97
          - 22 q_98 - 83 q_99 - 12 q_100 - 21 q_101 - 42 q_102 - 22 q_103
          - 48 q_104 - 43 q_105 - 90 q_106 - 47 q_107 - 88 q_108 - 91 q_109
          - 83 q_110 - 81 q_111 - 8 q_112 - 67 q_113 - 56 q_114 - 13 q_115
          - 66 q_116 - 34 q_117 - 41 q_118 - 71 q_119 + s_c51
           = -2958.28638618304
 c52:     - 23 q_00 - 96 q_01 - 40 q_02 - 75 q_03 - 56 q_04 - 83 q_05 - 79 q_06
          - 17 q_07 - 4 q_08 - 96 q_09 - 29 q_10 - 88 q_11 - 41 q_12 - 45 q_13
          - 93 q_14 - 8 q_15 - 6 q_16 - 49 q_17 - 22 q_18 - 20 q_19 - 86 q_20
          - 9 q_21 - 94 q_22 - 65 q_23 - 92 q_24 - 30 q_25 - 15 q_26 - 87 q_27
          - 97 q_28 - 90 q_29 - 26 q_30 - 70 q_31 - 34 q_32 - 100 q_33
          - 92 q_34 - 6 q_35 - 7 q_36 - 69 q_37 - q_38 - 22 q_39 - 74 q_40
          - 19 q_41 - 34 q_42 - 90 q_43 - 4 q_44 - 51 q_45 - 32 q_46 - 57 q_47
          - 43 q_48 - 76 q_49 - 47 q_50 - 80 q_51 - 95 q_52 - 85 q_53 - 61 q_54
          - 24 q_55 - 83 q_56 - 4 q_57 - 72 q_58 - 40 q_59 - 87 q_60 - 46 q_61
          - 32 q_62 - 64 q_63 - 7 q_64 - 91 q_65 - 59 q_66 - 19 q_67 - 39 q_68
          - 24 q_69 - 22 q_70 - 61 q_71 - 42 q_72 - 97 q_73 - 58 q_74 - 27 q_75
          - 9 q_76 - 11 q_77 - 85 q_78 - 92 q_79 - 70 q_80 - 92 q_81 - 36 q_82
          - 48 q_83 - 82 q_84 - 4 q_85 - 20 q_86 - 34 q_87 - 34 q_88 - 80 q_89
          - 18 q_90 - 61 q_91 - 27 q_92 - 98 q_93 - 67 q_94 - 75 q_95 - 91 q_96
          - 41 q_97 - 56 q_98 - 25 q_99 - 69 q_100 - 65 q_101 - 6 q_102
          - 91 q_103 - 68 q_104 - 16 q_105 - 26 q_106 - 43 q_107 - 83 q_108
          - 29 q_109 - 83 q_110 - 58 q_111 - 3 q_112 - 98 q_113 - 9 q_114
          - 6 q_115 - 86 q_116 - 88 q_117 - 66 q_118 - 68 q_119 + s_c52
           = -3429.18674316817
 c53:     - 22 q_00 - 90 q_01 - 82 q_02 - 34 q_03 - 96 q_04 - 50 q_05 - 38 q_06
          - 28 q_07 - 10 q_08 - 35 q_09 - 67 q_10 - 89 q_11 - 99 q_12 - 14 q_13
          - 28 q_14 - 68 q_15 - 89 q_16 - 16 q_17 - 64 q_18 - 28 q_19 - 46 q_20
          - 15 q_21 - 7 q_22 - 98 q_23 - 97 q_24 - 49 q_25 - 70 q_26 - 57 q_27
          - 55 q_28 - 52 q_29 - 82 q_30 - 9 q_31 - 100 q_32 - 10 q_33 - 11 q_34
          - 20 q_35 - 11 q_36 - 3 q_37 - 73 q_38 - 17 q_39 - 84 q_40 - 47 q_41
          - 54 q_42 - 98 q_43 - 17 q_44 - 39 q_45 - 89 q_46 - 89 q_47 - 60 q_48
          - 19 q_49 - 22 q_50 - 88 q_51 - 11 q_52 - 49 q_53 - 15 q_54
          - 100 q_55 - 9 q_56 - 94 q_57 - 68 q_58 - 89 q_59 - 33 q_60 - 27 q_61
          - 81 q_62 - 77 q_63 - 12 q_64 - 47 q_65 - 5 q_66 - 70 q_67 - 63 q_68
          - 83 q_69 - 19 q_70 - 67 q_71 - 38 q_72 - 12 q_73 - 56 q_74 - 14 q_75
          - 69 q_76 - 44 q_77 - 17 q_78 - 68 q_79 - 54 q_80 - 16 q_81 - 94 q_82
          - 31 q_83 - 3 q_84 - 22 q_85 - 16 q_86 - 36 q_87 - 87 q_88 - 8 q_89
          - 22 q_90 - 67 q_91 - 7 q_92 - 16 q_93 - 41 q_94 - 16 q_95 - 88 q_96
          - 91 q_97 - 72 q_98 - 94 q_99 - 15 q_100 - 94 q_101 - 34 q_102
          - 93 q_103 - 94 q_104 - 36 q_105 - 53 q_106 - 51 q_107 - 32 q_108
          - 7 q_109 - 94 q_110 - 21 q_111 - 42 q_112 - 5 q_113 - 87 q_114
          - 54 q_115 - 55 q_116 - 70 q_117 - 11 q_118 - 44 q_119 + s_c53
           = -3135.54618510557
 c54:     - 55 q_00 - 4 q_01 - 7 q_02 - 98 q_03 - 90 q_04 - 94 q_05 - 6 q_06
          - q_07 - 12 q_08 - 73 q_09 - 48 q_10 - 87 q_11 - 27 q_12 - 88 q_13
          - 88 q_14 - 79 q_15 - 47 q_16 - 77 q_17 - 34 q_18 - 50 q_19 - 9 q_20
          - 71 q_21 - 8 q_22 - 46 q_23 - 39 q_24 - 98 q_25 - 70 q_26 - 84 q_27
          - 57 q_28 - 91 q_29 - 11 q_30 - 17 q_31 - 18 q_32 - 16 q_33 - 7 q_34
          - 47 q_35 - 55 q_36 - 38 q_37 - 62 q_38 - 85 q_39 - 10 q_40 - 85 q_41
          - 22 q_42 - 44 q_43 - 12 q_44 - 45 q_45 - 59 q_46 - 95 q_47 - 89 q_48
          - 30 q_49 - 77 q_50 - 23 q_51 - 16 q_52 - 13 q_53 - 84 q_54 - 35 q_55
          - 11 q_56 - 86 q_57 - 98 q_58 - 19 q_59 - 86 q_60 - 21 q_61 - 84 q_62
          - 46 q_63 - 61 q_64 - 22 q_65 - 93 q_66 - 53 q_67 - 7 q_68 - 88 q_69
          - 2 q_70 - 64 q_71 - 64 q_72 - 9 q_73 - 17 q_74 - 30 q_75 - 69 q_76
          - 24 q_77 - 30 q_78 - 43 q_79 - 24 q_80 - 53 q_81 - 5 q_82 - 17 q_83
          - 22 q_84 - 65 q_85 - 84 q_86 - 77 q_87 - 72 q_88 - 72 q_89 - 92 q_90
          - 68 q_91 - 33 q_92 - 10 q_93 - 81 q_94 - 19 q_95 - 5 q_96 - 29 q_97
          - 19 q_98 - 75 q_99 - 60 q_100 - 8 q_101 - 92 q_102 - 15 q_103
          - 62 q_104 - 47 q_105 - 29 q_106 - 16 q_107 - 73 q_108 - 91 q_109
          - 5 q_110 - 56 q_111 - 15 q_112 - 15 q_113 - 63 q_114 - 26 q_115
          - 51 q_116 - 75 q_117 - 95 q_118 - 33 q_119 + s_c54
           = -3008.35177622973
 c55:     - 50 q_00 - 56 q_01 - 55 q_02 - 67 q_03 - 68 q_04 - 6 q_05 - 54 q_06
          - 77 q_07 - 34 q_08 - 35 q_09 - 2 q_10 - 12 q_11 - 10 q_12 - 46 q_13
          - 27 q_14 - 61 q_15 - 77 q_16 - 67 q_17 - 57 q_18 - 89 q_19 - 66 q_20
          - 32 q_21 - 23 q_22 - 87 q_23 - 34 q_24 - 51 q_25 - 46 q_26 - 91 q_27
          - 42 q_28 - 85 q_29 - 95 q_30 - 32 q_31 - 75 q_32 - 56 q_33 - 51 q_34
          - 30 q_35 - 13 q_36 - 34 q_37 - 91 q_38 - 41 q_39 - 57 q_40 - 32 q_41
          - 78 q_42 - 31 q_43 - 81 q_44 - 97 q_45 - 8 q_46 - 50 q_47 - 20 q_48
          - 72 q_49 - 60 q_50 - 80 q_51 - 15 q_52 - 74 q_53 - 57 q_54 - 61 q_55
          - 91 q_56 - 71 q_57 - 57 q_58 - 43 q_59 - 37 q_60 - 14 q_61 - 25 q_62
          - 43 q_63 - 72 q_64 - 49 q_65 - 2 q_66 - 76 q_67 - 99 q_68 - 45 q_69
          - 34 q_70 - 29 q_71 - q_72 - 92 q_73 - 59 q_74 - 36 q_75 - 75 q_76
          - 2 q_77 - 79 q_78 - 47 q_79 - 35 q_80 - 47 q_81 - 65 q_82 - 97 q_83
          - 52 q_84 - 62 q_85 - 85 q_86 - 6 q_87 - 17 q_88 - 32 q_89 - 92 q_90
          - 56 q_91 - 86 q_92 - 85 q_93 - 96 q_94 - 59 q_95 - 14 q_96 - 87 q_97
          - 4 q_98 - 38 q_99 - 6 q_100 - 95 q_101 - 39 q_102 - 13 q_103
          - 15 q_104 - 49 q_105 - 65 q_106 - 94 q_107 - 33 q_108 - 92 q_109
          - 97 q_110 - 10 q_111 - 88 q_112 - 65 q_113 - 23 q_114 - 93 q_115
          - 66 q_116 - 74 q_117 - 68 q_118 - 30 q_119 + s_c55
           = -3363.56631204988
 ybd_0:   q_00 + s_q_00  = 1
 ybd_1:   q_01 + s_q_01  = 1
 ybd_2:   q_02 + s_q_02  = 1
 ybd_3:   q_03 + s_q_03  = 1
 ybd_4:   q_04 + s_q_04  = 1
 ybd_5:   q_05 + s_q_05  = 1
 ybd_6:   q_06 + s_q_06  = 1
 ybd_7:   q_07 + s_q_07  = 1
 ybd_8:   q_08 + s_q_08  = 1
 ybd_9:   q_09 + s_q_09  = 1
 ybd_10:  q_10 + s_q_10  = 1
 ybd_11:  q_11 + s_q_11  = 1
 ybd_12:  q_12 + s_q_12  = 1
 ybd_13:  q_13 + s_q_13  = 1
 ybd_14:  q_14 + s_q_14  = 1
 ybd_15:  q_15 + s_q_15  = 1
 ybd_16:  q_16 + s_q_16  = 1
 ybd_17:  q_17 + s_q_17  = 1
 ybd_18:  q_18 + s_q_18  = 1
 ybd_19:  q_19 + s_q_19  = 1
 ybd_20:  q_20 + s_q_20  = 1
 ybd_21:  q_21 + s_q_21  = 1
 ybd_22:  q_22 + s_q_22  = 1
 ybd_23:  q_23 + s_q_23  = 1
 ybd_24:  q_24 + s_q_24  = 1
 ybd_25:  q_25 + s_q_25  = 1
 ybd_26:  q_26 + s_q_26  = 1
 ybd_27:  q_27 + s_q_27  = 1
 ybd_28:  q_28 + s_q_28  = 1
 ybd_29:  q_29 + s_q_29  = 1
 ybd_30:  q_30 + s_q_30  = 1
 ybd_31:  q_31 + s_q_31  = 1
 ybd_32:  q_32 + s_q_32  = 1
 ybd_33:  q_33 + s_q_33  = 1
 ybd_34:  q_34 + s_q_34  = 1
 ybd_35:  q_35 + s_q_35  = 1
 ybd_36:  q_36 + s_q_36  = 1
 ybd_37:  q_37 + s_q_37  = 1
 ybd_38:  q_38 + s_q_38  = 1
 ybd_39:  q_39 + s_q_39  = 1
 ybd_40:  q_40 + s_q_40  = 1
 ybd_41:  q_41 + s_q_41  = 1
 ybd_42:  q_42 + s_q_42  = 1
 ybd_43:  q_43 + s_q_43  = 1
 ybd_44:  q_44 + s_q_44  = 1
 ybd_45:  q_45 + s_q_45  = 1
 ybd_46:  q_46 + s_q_46  = 1
 ybd_47:  q_47 + s_q_47  = 1
 ybd_48:  q_48 + s_q_48  = 1
 ybd_49:  q_49 + s_q_49  = 1
 ybd_50:  q_50 + s_q_50  = 1
 ybd_51:  q_51 + s_q_51  = 1
 ybd_52:  q_52 + s_q_52  = 1
 ybd_53:  q_53 + s_q_53  = 1
 ybd_54:  q_54 + s_q_54  = 1
 ybd_55:  q_55 + s_q_55  = 1
 ybd_56:  q_56 + s_q_56  = 1
 ybd_57:  q_57 + s_q_57  = 1
 ybd_58:  q_58 + s_q_58  = 1
 ybd_59:  q_59 + s_q_59  = 1
 ybd_60:  q_60 + s_q_60  = 1
 ybd_61:  q_61 + s_q_61  = 1
 ybd_62:  q_62 + s_q_62  = 1
 ybd_63:  q_63 + s_q_63  = 1
 ybd_64:  q_64 + s_q_64  = 1
 ybd_65:  q_65 + s_q_65  = 1
 ybd_66:  q_66 + s_q_66  = 1
 ybd_67:  q_67 + s_q_67  = 1
 ybd_68:  q_68 + s_q_68  = 1
 ybd_69:  q_69 + s_q_69  = 1
 ybd_70:  q_70 + s_q_70  = 1
 ybd_71:  q_71 + s_q_71  = 1
 ybd_72:  q_72 + s_q_72  = 1
 ybd_73:  q_73 + s_q_73  = 1
 ybd_74:  q_74 + s_q_74  = 1
 ybd_75:  q_75 + s_q_75  = 1
 ybd_76:  q_76 + s_q_76  = 1
 ybd_77:  q_77 + s_q_77  = 1
 ybd_78:  q_78 + s_q_78  = 1
 ybd_79:  q_79 + s_q_79  = 1
 ybd_80:  q_80 + s_q_80  = 1
 ybd_81:  q_81 + s_q_81  = 1
 ybd_82:  q_82 + s_q_82  = 1
 ybd_83:  q_83 + s_q_83  = 1
 ybd_84:  q_84 + s_q_84  = 1
 ybd_85:  q_85 + s_q_85  = 1
 ybd_86:  q_86 + s_q_86  = 1
 ybd_87:  q_87 + s_q_87  = 1
 ybd_88:  q_88 + s_q_88  = 1
 ybd_89:  q_89 + s_q_89  = 1
 ybd_90:  q_90 + s_q_90  = 1
 ybd_91:  q_91 + s_q_91  = 1
 ybd_92:  q_92 + s_q_92  = 1
 ybd_93:  q_93 + s_q_93  = 1
 ybd_94:  q_94 + s_q_94  = 1
 ybd_95:  q_95 + s_q_95  = 1
 ybd_96:  q_96 + s_q_96  = 1
 ybd_97:  q_97 + s_q_97  = 1
 ybd_98:  q_98 + s_q_98  = 1
 ybd_99:  q_99 + s_q_99  = 1
 ybd_100: q_100 + s_q_100  = 1
 ybd_101: q_101 + s_q_101  = 1
 ybd_102: q_102 + s_q_102  = 1
 ybd_103: q_103 + s_q_103  = 1
 ybd_104: q_104 + s_q_104  = 1
 ybd_105: q_105 + s_q_105  = 1
 ybd_106: q_106 + s_q_106  = 1
 ybd_107: q_107 + s_q_107  = 1
 ybd_108: q_108 + s_q_108  = 1
 ybd_109: q_109 + s_q_109  = 1
 ybd_110: q_110 + s_q_110  = 1
 ybd_111: q_111 + s_q_111  = 1
 ybd_112: q_112 + s_q_112  = 1
 ybd_113: q_113 + s_q_113  = 1
 ybd_114: q_114 + s_q_114  = 1
 ybd_115: q_115 + s_q_115  = 1
 ybd_116: q_116 + s_q_116  = 1
 ybd_117: q_117 + s_q_117  = 1
 ybd_118: q_118 + s_q_118  = 1
 ybd_119: q_119 + s_q_119  = 1
Bounds
      y0 Free
End
